
Gurobi 9.5.2 (mac64[x86], Python) logging started Wed Oct 19 21:35:34 2022

Set parameter Username
Set parameter LogFile to value "best-lin-new-future-2.log"
Academic license - for non-commercial use only - expires 2023-07-03
Read LP format model from file new_best_lin_future_2.lp
Reading time = 0.01 seconds
: 929 rows, 616 columns, 6108 nonzeros
Gurobi Optimizer version 9.5.2 build v9.5.2rc0 (mac64[x86])
Thread count: 4 physical cores, 8 logical processors, using up to 8 threads
Optimize a model with 929 rows, 616 columns and 6108 nonzeros
Model fingerprint: 0x9b3fbdb4
Variable types: 0 continuous, 616 integer (616 binary)
Coefficient statistics:
  Matrix range     [1e+00, 2e+01]
  Objective range  [2e+00, 4e+00]
  Bounds range     [1e+00, 1e+00]
  RHS range        [1e+00, 1e+00]
Presolve removed 64 rows and 200 columns
Presolve time: 0.01s
Presolved: 865 rows, 416 columns, 5844 nonzeros
Variable types: 0 continuous, 416 integer (352 binary)
Found heuristic solution: objective 128.0000000
Found heuristic solution: objective 64.0000000

Root relaxation: objective 3.951929e-01, 383 iterations, 0.01 seconds (0.01 work units)

    Nodes    |    Current Node    |     Objective Bounds      |     Work
 Expl Unexpl |  Obj  Depth IntInf | Incumbent    BestBd   Gap | It/Node Time

     0     0    0.39519    0   25   64.00000    0.39519  99.4%     -    0s
H    0     0                      16.0000000    0.39519  97.5%     -    0s
H    0     0                      12.0000000    0.39519  96.7%     -    0s
     0     0    0.42608    0   25   12.00000    0.42608  96.4%     -    0s
     0     0    0.59277    0   44   12.00000    0.59277  95.1%     -    0s
     0     0    0.62500    0   55   12.00000    0.62500  94.8%     -    0s
H    0     0                      10.0000000    0.62500  93.7%     -    0s
     0     0    1.11404    0   53   10.00000    1.11404  88.9%     -    0s
     0     0    1.11404    0   34   10.00000    1.11404  88.9%     -    0s
     0     0    1.11404    0   36   10.00000    1.11404  88.9%     -    0s
     0     0    2.00000    0   62   10.00000    2.00000  80.0%     -    0s
     0     0    2.00000    0   27   10.00000    2.00000  80.0%     -    0s
     0     0    2.00000    0   35   10.00000    2.00000  80.0%     -    0s
     0     0    2.00000    0   41   10.00000    2.00000  80.0%     -    0s
     0     0    2.00000    0   73   10.00000    2.00000  80.0%     -    0s
     0     0    2.00000    0   98   10.00000    2.00000  80.0%     -    0s
     0     0    2.00000    0   70   10.00000    2.00000  80.0%     -    0s
     0     0    2.00000    0   94   10.00000    2.00000  80.0%     -    0s
     0     0    2.00000    0   93   10.00000    2.00000  80.0%     -    0s
     0     0    2.00000    0   65   10.00000    2.00000  80.0%     -    0s
     0     0    2.00000    0   65   10.00000    2.00000  80.0%     -    0s
     0     2    2.00000    0   65   10.00000    2.00000  80.0%     -    0s

Cutting planes:
  Cover: 17
  Implied bound: 16
  MIR: 12
  StrongCG: 1
  GUB cover: 1
  RLT: 1

Explored 9411 nodes (132414 simplex iterations) in 3.16 seconds (2.59 work units)
Thread count was 8 (of 8 available processors)

Solution count 5: 10 12 16 ... 128

Optimal solution found (tolerance 1.00e-04)
Best objective 1.000000000000e+01, best bound 1.000000000000e+01, gap 0.0000%
